************************************************************************
file with basedata            : J1202_.BAS
initial value random generator: 1236459378
************************************************************************
projects                      :  1
jobs (incl. supersource/sink ):  122
horizon                       :  740
RESOURCES
  - renewable                 :  4   R
  - nonrenewable              :  0   N
  - doubly constrained        :  0   D
************************************************************************
PROJECT INFORMATION:
pronr.  #jobs rel.date duedate tardcost  MPM-Time
    1    120      0       79       83       79
************************************************************************
PRECEDENCE RELATIONS:
jobnr.    #modes  #successors   successors
   1        1          3           2   3   4
   2        1          2           6  30
   3        1          3           8  10  31
   4        1          3           5   7  16
   5        1          3          29  34  74
   6        1          3           9  25  44
   7        1          3          14  19  28
   8        1          3          11  33  92
   9        1          1          20
  10        1          3          12  13  17
  11        1          3          18  27  35
  12        1          2          67 109
  13        1          3          15  51  68
  14        1          2          41  62
  15        1          3          43  66  72
  16        1          3          21  26  36
  17        1          2          42  66
  18        1          3          21  32 100
  19        1          1          81
  20        1          3          22  45  86
  21        1          2          24  52
  22        1          3          23  47  70
  23        1          1         105
  24        1          2          71 112
  25        1          1         101
  26        1          2          40  73
  27        1          1         111
  28        1          3          53  64 100
  29        1          1          37
  30        1          1         119
  31        1          3          39  42  82
  32        1          1         120
  33        1          1          38
  34        1          1         105
  35        1          1          88
  36        1          3          48  56  65
  37        1          1          90
  38        1          1          63
  39        1          1          87
  40        1          2          49  59
  41        1          2          83 103
  42        1          1          86
  43        1          3          46  91 102
  44        1          2          75 111
  45        1          3          50  85 107
  46        1          1         110
  47        1          3          54  55 106
  48        1          1          64
  49        1          3          57  81 108
  50        1          2          76 121
  51        1          1          62
  52        1          2          58  88
  53        1          1          60
  54        1          1          61
  55        1          1          98
  56        1          1          77
  57        1          1         114
  58        1          1         104
  59        1          1          66
  60        1          1         111
  61        1          1          84
  62        1          1          97
  63        1          1         117
  64        1          1         115
  65        1          1          69
  66        1          1         115
  67        1          1         117
  68        1          1         106
  69        1          1          78
  70        1          1          93
  71        1          1          97
  72        1          2          79  85
  73        1          1          80
  74        1          2          89  95
  75        1          1         104
  76        1          1         105
  77        1          1          78
  78        1          2          85 108
  79        1          2          88  89
  80        1          1          99
  81        1          1          96
  82        1          1         117
  83        1          1         102
  84        1          1         107
  85        1          1          91
  86        1          1         110
  87        1          1         103
  88        1          1         114
  89        1          1         103
  90        1          2          98 101
  91        1          1          94
  92        1          1          97
  93        1          2          94 100
  94        1          1         101
  95        1          1         116
  96        1          1         104
  97        1          1         109
  98        1          1         113
  99        1          1         113
 100        1          1         119
 101        1          1         114
 102        1          1         121
 103        1          1         108
 104        1          1         107
 105        1          1         112
 106        1          1         109
 107        1          1         121
 108        1          1         115
 109        1          1         113
 110        1          1         112
 111        1          1         118
 112        1          1         116
 113        1          1         116
 114        1          1         118
 115        1          1         119
 116        1          1         120
 117        1          1         118
 118        1          1         120
 119        1          1         122
 120        1          1         122
 121        1          1         122
 122        1          0        
************************************************************************
REQUESTS/DURATIONS:
jobnr. mode duration  R 1  R 2  R 3  R 4
------------------------------------------------------------------------
  1      1     0       0    0    0    0
  2      1     6       7    0    0    0
  3      1     8       0    8    0    0
  4      1     4       0    0   10    0
  5      1     3       6    0    0    0
  6      1     6       0    0    0    1
  7      1     6       0    0    0    6
  8      1     5       0    0    0    9
  9      1     8       0    0    8    0
 10      1     6       1    0    0    0
 11      1     6       5    0    0    0
 12      1     4       3    0    0    0
 13      1     3       8    0    0    0
 14      1     1       8    0    0    0
 15      1     1       0    0    0    2
 16      1     1       2    0    0    0
 17      1    10       0    0   10    0
 18      1     6       7    0    0    0
 19      1     8       0    6    0    0
 20      1     2       9    0    0    0
 21      1     7       0    0    0    2
 22      1    10       1    0    0    0
 23      1     2       7    0    0    0
 24      1     1       0    0    8    0
 25      1     8       0    0    0    6
 26      1     5       0    1    0    0
 27      1     8       0    1    0    0
 28      1     8       5    0    0    0
 29      1     7       0    0    0   10
 30      1    10       2    0    0    0
 31      1     7       0    0    0    1
 32      1     8       2    0    0    0
 33      1     7       4    0    0    0
 34      1     5       0    0    0    1
 35      1    10       9    0    0    0
 36      1     9       0    0    0    8
 37      1     4       0    0    0   10
 38      1     9       0    0    8    0
 39      1     4       0    0    7    0
 40      1     5       0    0    4    0
 41      1    10       0    0    8    0
 42      1     4       3    0    0    0
 43      1     7       0    0    8    0
 44      1     8       0    0    8    0
 45      1     7       0    0    3    0
 46      1     7       0    0    0    7
 47      1     9       0    0    7    0
 48      1    10       0    0    2    0
 49      1     5       0    0    0    1
 50      1     9       0    6    0    0
 51      1     9       0    6    0    0
 52      1     6       4    0    0    0
 53      1    10       6    0    0    0
 54      1     8       0    1    0    0
 55      1     2       0    0    0    7
 56      1     6       0    0   10    0
 57      1     8       0   10    0    0
 58      1     1       0    0    1    0
 59      1     5       0    0    0    3
 60      1     7       6    0    0    0
 61      1     3       2    0    0    0
 62      1     5       4    0    0    0
 63      1     9       0    0    0    9
 64      1     3       8    0    0    0
 65      1     7       0    0    0    8
 66      1     2       0    0    9    0
 67      1     6       0    0    0    7
 68      1    10       0    0    0    4
 69      1     3       0    0    4    0
 70      1     4       0    0    9    0
 71      1     8       4    0    0    0
 72      1     4       0    0    9    0
 73      1     9       0    0    3    0
 74      1    10       0    0    1    0
 75      1     5       0    3    0    0
 76      1     8       0    5    0    0
 77      1     2       1    0    0    0
 78      1    10       0    0    7    0
 79      1     9       0    0   10    0
 80      1     5       0    0    2    0
 81      1     8       0    0    0    7
 82      1     1       0    1    0    0
 83      1     8       0    0    0    2
 84      1     1       3    0    0    0
 85      1     8       0    0   10    0
 86      1     4       3    0    0    0
 87      1     6       3    0    0    0
 88      1     4       0    0    0    8
 89      1    10       0    0    0    9
 90      1     6       0    0   10    0
 91      1     2       0    9    0    0
 92      1    10       4    0    0    0
 93      1     3       0    0    7    0
 94      1     7       9    0    0    0
 95      1     7       0    0   10    0
 96      1     7       1    0    0    0
 97      1     4       6    0    0    0
 98      1    10       0    0    3    0
 99      1     2       0    0    0    4
100      1    10       0    0    1    0
101      1     6       0    0    0    8
102      1     4       7    0    0    0
103      1     8       4    0    0    0
104      1     7       0    0    0    7
105      1    10       0    0    3    0
106      1     2       0    0    0    2
107      1     1       0    0   10    0
108      1     8       0    1    0    0
109      1     8       0    0    0    8
110      1     6       0    0    8    0
111      1     7       0    0    7    0
112      1     4       0    0    7    0
113      1     4       0    4    0    0
114      1     1       0    0    0    8
115      1     9       0    0    0    8
116      1    10       9    0    0    0
117      1     8       5    0    0    0
118      1     9       7    0    0    0
119      1     8       0    0    2    0
120      1     9       0    0    1    0
121      1     5       0    0    3    0
122      1     0       0    0    0    0
************************************************************************
RESOURCEAVAILABILITIES:
  R 1  R 2  R 3  R 4
   15   12   27   15
************************************************************************
